Instance0
0.0000;0.0000;106
0.0000;Cuts:4;110
0;Cuts:3;111
cutoff;0.0000;111
CPXPARAM_MIP_Cuts_Disjunctive-LiftProj:Disjunctive 3
CPXPARAM_MIP_Cuts_Disjunctive-LiftProj:LiftProj 2
Instance1
0.0000;0.0000;113
0.0000;0.0000;113
CPXPARAM_MIP_Cuts_Disjunctive-LiftProj:Disjunctive 0
CPXPARAM_MIP_Cuts_Disjunctive-LiftProj:LiftProj 0
Instance2
0;-0.0000;101
CPXPARAM_MIP_Cuts_Disjunctive-LiftProj:Disjunctive 0
CPXPARAM_MIP_Cuts_Disjunctive-LiftProj:LiftProj 0
Instance3
0;-0.0000;76
CPXPARAM_MIP_Cuts_Disjunctive-LiftProj:Disjunctive 0
CPXPARAM_MIP_Cuts_Disjunctive-LiftProj:LiftProj 0
Instance4
0.0000;0.0000;109
0.0000;Cuts:4;135
0.0000;Cuts:3;140
0.0000;Disjcuts:2;141
0.0000;0.0000;141
CPXPARAM_MIP_Cuts_Disjunctive-LiftProj:Disjunctive 0
CPXPARAM_MIP_Cuts_Disjunctive-LiftProj:LiftProj 2
Instance5
0;-0.0000;118
CPXPARAM_MIP_Cuts_Disjunctive-LiftProj:Disjunctive 0
CPXPARAM_MIP_Cuts_Disjunctive-LiftProj:LiftProj 0
Instance6
0;0.0000;85
CPXPARAM_MIP_Cuts_Disjunctive-LiftProj:Disjunctive 0
CPXPARAM_MIP_Cuts_Disjunctive-LiftProj:LiftProj 0
Instance7
0;0.0000;72
CPXPARAM_MIP_Cuts_Disjunctive-LiftProj:Disjunctive 0
CPXPARAM_MIP_Cuts_Disjunctive-LiftProj:LiftProj 0
Instance8
-0.0000;-0.0000;123
-0.0000;LiftProj:2;145
-0.0000;Cuts:3;150
-0.0000;-0.0000;150
CPXPARAM_MIP_Cuts_Disjunctive-LiftProj:Disjunctive 2
CPXPARAM_MIP_Cuts_Disjunctive-LiftProj:LiftProj 2
Instance9
-0.0000;-0.0000;113
-0.0000;-0.0000;132
CPXPARAM_MIP_Cuts_Disjunctive-LiftProj:Disjunctive 0
CPXPARAM_MIP_Cuts_Disjunctive-LiftProj:LiftProj 0
Instance10
0.0000;0.0000;94
0;LiftProj:1;103
cutoff;0.0000;103
CPXPARAM_MIP_Cuts_Disjunctive-LiftProj:Disjunctive 0
CPXPARAM_MIP_Cuts_Disjunctive-LiftProj:LiftProj 0
Instance11
0;0.0000;88
CPXPARAM_MIP_Cuts_Disjunctive-LiftProj:Disjunctive 0
CPXPARAM_MIP_Cuts_Disjunctive-LiftProj:LiftProj 0
Instance12
0.0000;0.0000;106
0;Cuts:4;161
cutoff;0.0000;161
CPXPARAM_MIP_Cuts_Disjunctive-LiftProj:Disjunctive 0
CPXPARAM_MIP_Cuts_Disjunctive-LiftProj:LiftProj 0
Instance13
-0.0000;-0.0000;102
0;-0.0000;115
-0.0000;-0.0000;-0.0000
CPXPARAM_MIP_Cuts_Disjunctive-LiftProj:Disjunctive 0
CPXPARAM_MIP_Cuts_Disjunctive-LiftProj:LiftProj 0
Instance14
-0.0000;-0.0000;78
0;-0.0000;86
-0.0000;-0.0000;-0.0000
CPXPARAM_MIP_Cuts_Disjunctive-LiftProj:Disjunctive 0
CPXPARAM_MIP_Cuts_Disjunctive-LiftProj:LiftProj 0
Instance15
0;0.0000;79
CPXPARAM_MIP_Cuts_Disjunctive-LiftProj:Disjunctive 0
CPXPARAM_MIP_Cuts_Disjunctive-LiftProj:LiftProj 0
Instance16
-0.0000;-0.0000;123
0;Cuts:3;140
cutoff;-0.0000;140
CPXPARAM_MIP_Cuts_Disjunctive-LiftProj:Disjunctive 1
CPXPARAM_MIP_Cuts_Disjunctive-LiftProj:LiftProj 1
Instance17
0;-0.0000;95
CPXPARAM_MIP_Cuts_Disjunctive-LiftProj:Disjunctive 0
CPXPARAM_MIP_Cuts_Disjunctive-LiftProj:LiftProj 0
Instance18
0;-0.0000;72
CPXPARAM_MIP_Cuts_Disjunctive-LiftProj:Disjunctive 0
CPXPARAM_MIP_Cuts_Disjunctive-LiftProj:LiftProj 0
Instance19
0;0.0000;85
CPXPARAM_MIP_Cuts_Disjunctive-LiftProj:Disjunctive 0
CPXPARAM_MIP_Cuts_Disjunctive-LiftProj:LiftProj 0
Instance20
0.0000;0.0000;115
0.0000;0.0000;136
CPXPARAM_MIP_Cuts_Disjunctive-LiftProj:Disjunctive 0
CPXPARAM_MIP_Cuts_Disjunctive-LiftProj:LiftProj 0
Instance21
-0.0000;-0.0000;114
0.0000;0.0000;131
CPXPARAM_MIP_Cuts_Disjunctive-LiftProj:Disjunctive 0
CPXPARAM_MIP_Cuts_Disjunctive-LiftProj:LiftProj 0
Instance22
0;0.0000;68
CPXPARAM_MIP_Cuts_Disjunctive-LiftProj:Disjunctive 0
CPXPARAM_MIP_Cuts_Disjunctive-LiftProj:LiftProj 0
Instance23
0;0.0000;71
CPXPARAM_MIP_Cuts_Disjunctive-LiftProj:Disjunctive 0
CPXPARAM_MIP_Cuts_Disjunctive-LiftProj:LiftProj 0
Instance24
0.0000;0.0000;120
0.0000;Cuts:3;123
0;Cuts:2;124
cutoff;0.0000;124
CPXPARAM_MIP_Cuts_Disjunctive-LiftProj:Disjunctive 2
CPXPARAM_MIP_Cuts_Disjunctive-LiftProj:LiftProj 1
Instance25
0.0000;0.0000;151
0.0000;0.0000;151
CPXPARAM_MIP_Cuts_Disjunctive-LiftProj:Disjunctive 0
CPXPARAM_MIP_Cuts_Disjunctive-LiftProj:LiftProj 0
Instance26
0;0.0000;70
CPXPARAM_MIP_Cuts_Disjunctive-LiftProj:Disjunctive 0
CPXPARAM_MIP_Cuts_Disjunctive-LiftProj:LiftProj 0
Instance27
0;-0.0000;71
CPXPARAM_MIP_Cuts_Disjunctive-LiftProj:Disjunctive 0
CPXPARAM_MIP_Cuts_Disjunctive-LiftProj:LiftProj 0
Instance28
0.0000;0.0000;121
0.0000;LiftProj:1;124
0.0000;Disjcuts:1;126
0.0000;0.0000;126
CPXPARAM_MIP_Cuts_Disjunctive-LiftProj:Disjunctive 1
CPXPARAM_MIP_Cuts_Disjunctive-LiftProj:LiftProj 1
Instance29
-0.0000;-0.0000;126
-0.0000;-0.0000;149
CPXPARAM_MIP_Cuts_Disjunctive-LiftProj:Disjunctive 0
CPXPARAM_MIP_Cuts_Disjunctive-LiftProj:LiftProj 0
Instance30
0;0.0000;82
CPXPARAM_MIP_Cuts_Disjunctive-LiftProj:Disjunctive 0
CPXPARAM_MIP_Cuts_Disjunctive-LiftProj:LiftProj 0
Instance31
0;-0.0000;77
CPXPARAM_MIP_Cuts_Disjunctive-LiftProj:Disjunctive 0
CPXPARAM_MIP_Cuts_Disjunctive-LiftProj:LiftProj 0
Instance32
0.0000;0.0000;147
0.0000;Cuts:2;180
0.0000;LiftProj:2;186
0.0000;Cuts:7;193
0.0000;0.0000;193
CPXPARAM_MIP_Cuts_Disjunctive-LiftProj:Disjunctive 0
CPXPARAM_MIP_Cuts_Disjunctive-LiftProj:LiftProj 1
Instance33
-0.0000;-0.0000;101
-0.0000;-0.0000;101
CPXPARAM_MIP_Cuts_Disjunctive-LiftProj:Disjunctive 0
CPXPARAM_MIP_Cuts_Disjunctive-LiftProj:LiftProj 0
Instance34
0;0.0000;75
CPXPARAM_MIP_Cuts_Disjunctive-LiftProj:Disjunctive 0
CPXPARAM_MIP_Cuts_Disjunctive-LiftProj:LiftProj 0
Instance35
0;0.0000;81
CPXPARAM_MIP_Cuts_Disjunctive-LiftProj:Disjunctive 0
CPXPARAM_MIP_Cuts_Disjunctive-LiftProj:LiftProj 0
Instance36
-0.0000;-0.0000;118
0;Cuts:5;144
cutoff;-0.0000;144
CPXPARAM_MIP_Cuts_Disjunctive-LiftProj:Disjunctive 0
CPXPARAM_MIP_Cuts_Disjunctive-LiftProj:LiftProj 0
Instance37
0;0.0000;118
CPXPARAM_MIP_Cuts_Disjunctive-LiftProj:Disjunctive 0
CPXPARAM_MIP_Cuts_Disjunctive-LiftProj:LiftProj 0
Instance38
0;0.0000;72
CPXPARAM_MIP_Cuts_Disjunctive-LiftProj:Disjunctive 0
CPXPARAM_MIP_Cuts_Disjunctive-LiftProj:LiftProj 0
Instance39
0;0.0000;81
CPXPARAM_MIP_Cuts_Disjunctive-LiftProj:Disjunctive 0
CPXPARAM_MIP_Cuts_Disjunctive-LiftProj:LiftProj 0
